Set parameter Username
Academic license - for non-commercial use only - expires 2022-06-20
Set parameter LazyConstraints to value 1
Gurobi Optimizer version 9.5.1 build v9.5.1rc2 (mac64[x86])
Thread count: 2 physical cores, 4 logical processors, using up to 4 threads
Optimize a model with 5329 rows, 5184 columns and 20664 nonzeros
Model fingerprint: 0xad72c5fb
Variable types: 0 continuous, 5184 integer (5184 binary)
Coefficient statistics:
  Matrix range     [1e+00, 4e+05]
  Objective range  [2e-01, 6e+00]
  Bounds range     [1e+00, 1e+00]
  RHS range        [1e+00, 8e+00]
Presolve removed 298 rows and 141 columns
Presolve time: 0.08s
Presolved: 5031 rows, 5043 columns, 20420 nonzeros
Variable types: 0 continuous, 5043 integer (5043 binary)

Root relaxation: objective 4.535540e+01, 1455 iterations, 0.17 seconds (0.13 work units)

    Nodes    |    Current Node    |     Objective Bounds      |     Work
 Expl Unexpl |  Obj  Depth IntInf | Incumbent    BestBd   Gap | It/Node Time

     0     0   45.35540    0  230          -   45.35540      -     -    0s
     0     0   45.80936    0  165          -   45.80936      -     -    1s
     0     0   45.94133    0   95          -   45.94133      -     -    1s
     0     0   45.94147    0  212          -   45.94147      -     -    1s
     0     0   45.97976    0  181          -   45.97976      -     -    2s
     0     0   46.01113    0  233          -   46.01113      -     -    2s
     0     0   46.06045    0  251          -   46.06045      -     -    2s
     0     0   46.06290    0  222          -   46.06290      -     -    2s
     0     0   46.08651    0  222          -   46.08651      -     -    2s
     0     0   46.10616    0  286          -   46.10616      -     -    2s
     0     0   46.10642    0  285          -   46.10642      -     -    2s
     0     0   46.10646    0  286          -   46.10646      -     -    2s
     0     0   46.11947    0  276          -   46.11947      -     -    2s
     0     0   46.13073    0  271          -   46.13073      -     -    2s
     0     0   46.13096    0  323          -   46.13096      -     -    2s
     0     0   46.13096    0  323          -   46.13096      -     -    3s
     0     2   46.24250    0  269          -   46.24250      -     -    4s
    35    40   46.71553   10  107          -   46.42875      -  81.4    5s
   683   593   46.71004    6  273          -   46.48718      -  50.7   10s
H  734   586                      48.4713658   46.48718  4.09%  49.9   15s
H  734   556                      48.1244552   46.48718  3.40%  49.9   15s
   747   568   46.48880   22  281   48.12446   46.48880  3.40%  54.6   20s
H  893   567                      47.8246504   46.56303  2.64%  60.2   22s
H  922   527                      47.7699661   46.59777  2.45%  59.9   23s
H 1102   475                      47.7106247   46.74507  2.02%  63.1   25s
H 1131   450                      47.6559404   46.80681  1.78%  63.7   25s
H 1395   421                      47.5025504   46.98371  1.09%  65.8   27s
H 1475   365                      47.4478661   47.04320  0.85%  66.8   28s
  1745    81     cutoff   45        47.44787   47.35352  0.20%  67.4   30s

Cutting planes:
  Gomory: 2
  MIR: 12
  StrongCG: 7
  Flow cover: 5
  GUB cover: 12
  Zero half: 2
  Lazy constraints: 12

Explored 1846 nodes (121308 simplex iterations) in 30.09 seconds (19.22 work units)
Thread count was 4 (of 4 available processors)

Solution count 8: 47.4479 47.5026 47.6559 ... 48.4714

Optimal solution found (tolerance 1.00e-04)
Best objective 4.744786610475e+01, best bound 4.744786610475e+01, gap 0.0000%

User-callback calls 7090, time in user-callback 8.08 sec
cuts :  499
